p cnf 54 549
1 0
28 0
1 0
5 0
32 0
11 0
9 0
36 0
21 0
-1 -2 0
-1 -4 0
-1 -10 0
-1 -3 0
-1 -7 0
-1 -19 0
-2 -3 0
-4 -7 0
-10 -19 0
1 2 3  0
1 4 7  0
1 10 19  0
-4 -5 0
-2 -5 0
-2 -11 0
-4 -6 0
-2 -8 0
-2 -20 0
-5 -6 0
-5 -8 0
-11 -20 0
4 5 6  0
2 5 8  0
2 11 20  0
-7 -8 0
-3 -6 0
-3 -12 0
-7 -9 0
-3 -9 0
-3 -21 0
-8 -9 0
-6 -9 0
-12 -21 0
7 8 9  0
3 6 9  0
3 12 21  0
-10 -11 0
-10 -13 0
-4 -13 0
-10 -12 0
-10 -16 0
-4 -22 0
-11 -12 0
-13 -16 0
-13 -22 0
10 11 12  0
10 13 16  0
4 13 22  0
-13 -14 0
-11 -14 0
-5 -14 0
-13 -15 0
-11 -17 0
-5 -23 0
-14 -15 0
-14 -17 0
-14 -23 0
13 14 15  0
11 14 17  0
5 14 23  0
-16 -17 0
-12 -15 0
-6 -15 0
-16 -18 0
-12 -18 0
-6 -24 0
-17 -18 0
-15 -18 0
-15 -24 0
16 17 18  0
12 15 18  0
6 15 24  0
-19 -20 0
-19 -22 0
-7 -16 0
-19 -21 0
-19 -25 0
-7 -25 0
-20 -21 0
-22 -25 0
-16 -25 0
19 20 21  0
19 22 25  0
7 16 25  0
-22 -23 0
-20 -23 0
-8 -17 0
-22 -24 0
-20 -26 0
-8 -26 0
-23 -24 0
-23 -26 0
-17 -26 0
22 23 24  0
20 23 26  0
8 17 26  0
-25 -26 0
-21 -24 0
-9 -18 0
-25 -27 0
-21 -27 0
-9 -27 0
-26 -27 0
-24 -27 0
-18 -27 0
25 26 27  0
21 24 27  0
9 18 27  0
-28 -29 0
-28 -31 0
-28 -37 0
-28 -30 0
-28 -34 0
-28 -46 0
-29 -30 0
-31 -34 0
-37 -46 0
28 29 30  0
28 31 34  0
28 37 46  0
-31 -32 0
-29 -32 0
-29 -38 0
-31 -33 0
-29 -35 0
-29 -47 0
-32 -33 0
-32 -35 0
-38 -47 0
31 32 33  0
29 32 35  0
29 38 47  0
-34 -35 0
-30 -33 0
-30 -39 0
-34 -36 0
-30 -36 0
-30 -48 0
-35 -36 0
-33 -36 0
-39 -48 0
34 35 36  0
30 33 36  0
30 39 48  0
-37 -38 0
-37 -40 0
-31 -40 0
-37 -39 0
-37 -43 0
-31 -49 0
-38 -39 0
-40 -43 0
-40 -49 0
37 38 39  0
37 40 43  0
31 40 49  0
-40 -41 0
-38 -41 0
-32 -41 0
-40 -42 0
-38 -44 0
-32 -50 0
-41 -42 0
-41 -44 0
-41 -50 0
40 41 42  0
38 41 44  0
32 41 50  0
-43 -44 0
-39 -42 0
-33 -42 0
-43 -45 0
-39 -45 0
-33 -51 0
-44 -45 0
-42 -45 0
-42 -51 0
43 44 45  0
39 42 45  0
33 42 51  0
-46 -47 0
-46 -49 0
-34 -43 0
-46 -48 0
-46 -52 0
-34 -52 0
-47 -48 0
-49 -52 0
-43 -52 0
46 47 48  0
46 49 52  0
34 43 52  0
-49 -50 0
-47 -50 0
-35 -44 0
-49 -51 0
-47 -53 0
-35 -53 0
-50 -51 0
-50 -53 0
-44 -53 0
49 50 51  0
47 50 53  0
35 44 53  0
-52 -53 0
-48 -51 0
-36 -45 0
-52 -54 0
-48 -54 0
-36 -54 0
-53 -54 0
-51 -54 0
-45 -54 0
52 53 54  0
48 51 54  0
36 45 54  0
-1 -28 -4 -31 0
-1 -29 -4 -32 0
-1 -30 -4 -33 0
-2 -28 -5 -31 0
-2 -29 -5 -32 0
-2 -30 -5 -33 0
-3 -28 -6 -31 0
-3 -29 -6 -32 0
-3 -30 -6 -33 0
-1 -28 -7 -34 0
-1 -29 -7 -35 0
-1 -30 -7 -36 0
-2 -28 -8 -34 0
-2 -29 -8 -35 0
-2 -30 -8 -36 0
-3 -28 -9 -34 0
-3 -29 -9 -35 0
-3 -30 -9 -36 0
-1 -28 -10 -37 0
-1 -29 -10 -38 0
-1 -30 -10 -39 0
-2 -28 -11 -37 0
-2 -29 -11 -38 0
-2 -30 -11 -39 0
-3 -28 -12 -37 0
-3 -29 -12 -38 0
-3 -30 -12 -39 0
-1 -28 -13 -40 0
-1 -29 -13 -41 0
-1 -30 -13 -42 0
-2 -28 -14 -40 0
-2 -29 -14 -41 0
-2 -30 -14 -42 0
-3 -28 -15 -40 0
-3 -29 -15 -41 0
-3 -30 -15 -42 0
-1 -28 -16 -43 0
-1 -29 -16 -44 0
-1 -30 -16 -45 0
-2 -28 -17 -43 0
-2 -29 -17 -44 0
-2 -30 -17 -45 0
-3 -28 -18 -43 0
-3 -29 -18 -44 0
-3 -30 -18 -45 0
-1 -28 -19 -46 0
-1 -29 -19 -47 0
-1 -30 -19 -48 0
-2 -28 -20 -46 0
-2 -29 -20 -47 0
-2 -30 -20 -48 0
-3 -28 -21 -46 0
-3 -29 -21 -47 0
-3 -30 -21 -48 0
-1 -28 -22 -49 0
-1 -29 -22 -50 0
-1 -30 -22 -51 0
-2 -28 -23 -49 0
-2 -29 -23 -50 0
-2 -30 -23 -51 0
-3 -28 -24 -49 0
-3 -29 -24 -50 0
-3 -30 -24 -51 0
-1 -28 -25 -52 0
-1 -29 -25 -53 0
-1 -30 -25 -54 0
-2 -28 -26 -52 0
-2 -29 -26 -53 0
-2 -30 -26 -54 0
-3 -28 -27 -52 0
-3 -29 -27 -53 0
-3 -30 -27 -54 0
-4 -31 -7 -34 0
-4 -32 -7 -35 0
-4 -33 -7 -36 0
-5 -31 -8 -34 0
-5 -32 -8 -35 0
-5 -33 -8 -36 0
-6 -31 -9 -34 0
-6 -32 -9 -35 0
-6 -33 -9 -36 0
-4 -31 -10 -37 0
-4 -32 -10 -38 0
-4 -33 -10 -39 0
-5 -31 -11 -37 0
-5 -32 -11 -38 0
-5 -33 -11 -39 0
-6 -31 -12 -37 0
-6 -32 -12 -38 0
-6 -33 -12 -39 0
-4 -31 -13 -40 0
-4 -32 -13 -41 0
-4 -33 -13 -42 0
-5 -31 -14 -40 0
-5 -32 -14 -41 0
-5 -33 -14 -42 0
-6 -31 -15 -40 0
-6 -32 -15 -41 0
-6 -33 -15 -42 0
-4 -31 -16 -43 0
-4 -32 -16 -44 0
-4 -33 -16 -45 0
-5 -31 -17 -43 0
-5 -32 -17 -44 0
-5 -33 -17 -45 0
-6 -31 -18 -43 0
-6 -32 -18 -44 0
-6 -33 -18 -45 0
-4 -31 -19 -46 0
-4 -32 -19 -47 0
-4 -33 -19 -48 0
-5 -31 -20 -46 0
-5 -32 -20 -47 0
-5 -33 -20 -48 0
-6 -31 -21 -46 0
-6 -32 -21 -47 0
-6 -33 -21 -48 0
-4 -31 -22 -49 0
-4 -32 -22 -50 0
-4 -33 -22 -51 0
-5 -31 -23 -49 0
-5 -32 -23 -50 0
-5 -33 -23 -51 0
-6 -31 -24 -49 0
-6 -32 -24 -50 0
-6 -33 -24 -51 0
-4 -31 -25 -52 0
-4 -32 -25 -53 0
-4 -33 -25 -54 0
-5 -31 -26 -52 0
-5 -32 -26 -53 0
-5 -33 -26 -54 0
-6 -31 -27 -52 0
-6 -32 -27 -53 0
-6 -33 -27 -54 0
-7 -34 -10 -37 0
-7 -35 -10 -38 0
-7 -36 -10 -39 0
-8 -34 -11 -37 0
-8 -35 -11 -38 0
-8 -36 -11 -39 0
-9 -34 -12 -37 0
-9 -35 -12 -38 0
-9 -36 -12 -39 0
-7 -34 -13 -40 0
-7 -35 -13 -41 0
-7 -36 -13 -42 0
-8 -34 -14 -40 0
-8 -35 -14 -41 0
-8 -36 -14 -42 0
-9 -34 -15 -40 0
-9 -35 -15 -41 0
-9 -36 -15 -42 0
-7 -34 -16 -43 0
-7 -35 -16 -44 0
-7 -36 -16 -45 0
-8 -34 -17 -43 0
-8 -35 -17 -44 0
-8 -36 -17 -45 0
-9 -34 -18 -43 0
-9 -35 -18 -44 0
-9 -36 -18 -45 0
-7 -34 -19 -46 0
-7 -35 -19 -47 0
-7 -36 -19 -48 0
-8 -34 -20 -46 0
-8 -35 -20 -47 0
-8 -36 -20 -48 0
-9 -34 -21 -46 0
-9 -35 -21 -47 0
-9 -36 -21 -48 0
-7 -34 -22 -49 0
-7 -35 -22 -50 0
-7 -36 -22 -51 0
-8 -34 -23 -49 0
-8 -35 -23 -50 0
-8 -36 -23 -51 0
-9 -34 -24 -49 0
-9 -35 -24 -50 0
-9 -36 -24 -51 0
-7 -34 -25 -52 0
-7 -35 -25 -53 0
-7 -36 -25 -54 0
-8 -34 -26 -52 0
-8 -35 -26 -53 0
-8 -36 -26 -54 0
-9 -34 -27 -52 0
-9 -35 -27 -53 0
-9 -36 -27 -54 0
-10 -37 -13 -40 0
-10 -38 -13 -41 0
-10 -39 -13 -42 0
-11 -37 -14 -40 0
-11 -38 -14 -41 0
-11 -39 -14 -42 0
-12 -37 -15 -40 0
-12 -38 -15 -41 0
-12 -39 -15 -42 0
-10 -37 -16 -43 0
-10 -38 -16 -44 0
-10 -39 -16 -45 0
-11 -37 -17 -43 0
-11 -38 -17 -44 0
-11 -39 -17 -45 0
-12 -37 -18 -43 0
-12 -38 -18 -44 0
-12 -39 -18 -45 0
-10 -37 -19 -46 0
-10 -38 -19 -47 0
-10 -39 -19 -48 0
-11 -37 -20 -46 0
-11 -38 -20 -47 0
-11 -39 -20 -48 0
-12 -37 -21 -46 0
-12 -38 -21 -47 0
-12 -39 -21 -48 0
-10 -37 -22 -49 0
-10 -38 -22 -50 0
-10 -39 -22 -51 0
-11 -37 -23 -49 0
-11 -38 -23 -50 0
-11 -39 -23 -51 0
-12 -37 -24 -49 0
-12 -38 -24 -50 0
-12 -39 -24 -51 0
-10 -37 -25 -52 0
-10 -38 -25 -53 0
-10 -39 -25 -54 0
-11 -37 -26 -52 0
-11 -38 -26 -53 0
-11 -39 -26 -54 0
-12 -37 -27 -52 0
-12 -38 -27 -53 0
-12 -39 -27 -54 0
-13 -40 -16 -43 0
-13 -41 -16 -44 0
-13 -42 -16 -45 0
-14 -40 -17 -43 0
-14 -41 -17 -44 0
-14 -42 -17 -45 0
-15 -40 -18 -43 0
-15 -41 -18 -44 0
-15 -42 -18 -45 0
-13 -40 -19 -46 0
-13 -41 -19 -47 0
-13 -42 -19 -48 0
-14 -40 -20 -46 0
-14 -41 -20 -47 0
-14 -42 -20 -48 0
-15 -40 -21 -46 0
-15 -41 -21 -47 0
-15 -42 -21 -48 0
-13 -40 -22 -49 0
-13 -41 -22 -50 0
-13 -42 -22 -51 0
-14 -40 -23 -49 0
-14 -41 -23 -50 0
-14 -42 -23 -51 0
-15 -40 -24 -49 0
-15 -41 -24 -50 0
-15 -42 -24 -51 0
-13 -40 -25 -52 0
-13 -41 -25 -53 0
-13 -42 -25 -54 0
-14 -40 -26 -52 0
-14 -41 -26 -53 0
-14 -42 -26 -54 0
-15 -40 -27 -52 0
-15 -41 -27 -53 0
-15 -42 -27 -54 0
-16 -43 -19 -46 0
-16 -44 -19 -47 0
-16 -45 -19 -48 0
-17 -43 -20 -46 0
-17 -44 -20 -47 0
-17 -45 -20 -48 0
-18 -43 -21 -46 0
-18 -44 -21 -47 0
-18 -45 -21 -48 0
-16 -43 -22 -49 0
-16 -44 -22 -50 0
-16 -45 -22 -51 0
-17 -43 -23 -49 0
-17 -44 -23 -50 0
-17 -45 -23 -51 0
-18 -43 -24 -49 0
-18 -44 -24 -50 0
-18 -45 -24 -51 0
-16 -43 -25 -52 0
-16 -44 -25 -53 0
-16 -45 -25 -54 0
-17 -43 -26 -52 0
-17 -44 -26 -53 0
-17 -45 -26 -54 0
-18 -43 -27 -52 0
-18 -44 -27 -53 0
-18 -45 -27 -54 0
-19 -46 -22 -49 0
-19 -47 -22 -50 0
-19 -48 -22 -51 0
-20 -46 -23 -49 0
-20 -47 -23 -50 0
-20 -48 -23 -51 0
-21 -46 -24 -49 0
-21 -47 -24 -50 0
-21 -48 -24 -51 0
-19 -46 -25 -52 0
-19 -47 -25 -53 0
-19 -48 -25 -54 0
-20 -46 -26 -52 0
-20 -47 -26 -53 0
-20 -48 -26 -54 0
-21 -46 -27 -52 0
-21 -47 -27 -53 0
-21 -48 -27 -54 0
-22 -49 -25 -52 0
-22 -50 -25 -53 0
-22 -51 -25 -54 0
-23 -49 -26 -52 0
-23 -50 -26 -53 0
-23 -51 -26 -54 0
-24 -49 -27 -52 0
-24 -50 -27 -53 0
-24 -51 -27 -54 0
